100 12907
404	1010	303	202	55	275	110	55	165	404	303	330	385	275	275	440	202	707	275	55	909	550	165	55	202	606	707	101	220	110	808	550	275	55	404	808	55	202	909	606	505	202	404	110	505	505	404	495	707	202	55	404	505	909	707	275	606	495	275	202	495	275	55	220	505	495	808	495	495	495	165	1010	220	808	275	606	110	330	55	303	808	550	385	165	55	110	220	606	110	707	220	55	275	330	385	1010	1010	330	808	550
324	810	243	162	35	175	70	35	105	324	243	210	245	175	175	280	162	567	175	35	729	350	105	35	162	486	567	81	140	70	648	350	175	35	324	648	35	162	729	486	405	162	324	70	405	405	324	315	567	162	35	324	405	729	567	175	486	315	175	162	315	175	35	140	405	315	648	315	315	315	105	810	140	648	175	486	70	210	35	243	648	350	245	105	35	70	140	486	70	567	140	35	175	210	245	810	810	210	648	350

